50
17460

294 515
466 317
162 903
656 886
531 791
294 692
64 152
982 628
456 102
431 849
653 462
939 153
567 57
248 267
35 239
566 555
988 427
458 963
324 18
422 802
600 645
586 791
704 599
887 636
385 42
116 353
351 502
46 483
941 981
770 677
806 648
356 846
883 457
566 523
458 937
149 187
508 774
98 877
985 370
669 914
316 820
13 338
41 3
225 905
438 643
309 819
458 424
452 665
891 211
465 864
